13993.34,49.77,56.53
15203.14,45.81,52.04
13641.68,51.05,57.99
13339.34,52.21,59.31
14671.75,47.47,53.92
14747.95,47.22,53.64
13419.66,51.89,58.95
12493.99,55.74,63.32
13168.16,52.88,60.08
14061.98,49.52,56.26
15883.81,43.84,49.81
12599.81,55.27,62.79
13531.8,51.46,58.46
13501.72,51.58,58.59
15312.87,45.48,51.66
12137.76,57.37,65.18
15343.55,45.39,51.56
14895.62,46.75,53.11
13739.93,50.68,57.58
13313.23,52.31,59.42
